p tw 195 411
1 80
1 123
1 124
1 179
2 51
2 91
2 92
2 129
2 130
2 142
2 183
2 184
3 56
3 57
3 140
3 141
3 154
3 155
3 194
3 195
4 76
4 77
4 114
4 115
4 166
4 167
5 79
5 120
5 121
5 174
5 175
6 57
6 58
6 103
6 104
6 155
6 156
7 73
7 106
7 158
8 59
8 60
8 138
8 139
8 192
8 193
9 49
9 111
9 112
9 162
9 163
10 78
10 79
10 142
10 171
10 172
11 55
11 56
11 102
11 103
11 153
11 154
12 92
12 93
12 128
12 129
12 182
12 183
13 95
13 109
13 110
13 161
14 16
14 89
14 90
14 141
14 195
15 16
15 165
15 166
16 141
16 195
17 137
17 138
17 152
17 153
17 191
17 192
18 73
18 74
18 112
18 113
18 164
18 165
19 87
19 88
19 136
19 137
19 189
19 190
20 72
20 104
20 105
20 157
21 62
21 63
21 119
21 120
21 130
21 131
21 175
21 176
21 184
21 185
22 27
22 80
22 81
22 124
22 180
23 118
23 119
23 176
23 177
24 94
24 95
24 133
24 134
24 187
24 188
25 50
25 84
25 85
25 98
25 99
25 125
25 131
25 132
25 146
25 147
25 185
25 186
26 85
26 86
26 100
26 101
26 148
26 149
27 81
27 82
27 124
27 180
28 71
28 72
28 151
28 152
29 53
29 96
29 143
30 60
30 61
30 116
30 117
30 170
30 171
31 64
31 65
31 122
31 178
32 70
32 71
32 101
32 102
32 150
32 151
33 54
33 55
33 97
33 98
33 145
33 146
34 74
34 75
34 135
34 136
34 163
34 164
34 190
34 191
35 53
35 54
35 96
35 97
35 144
35 145
36 59
36 110
36 111
36 162
37 121
37 122
37 177
37 178
38 90
38 91
38 107
38 108
38 125
38 127
38 128
38 159
38 160
38 181
38 182
39 61
39 62
39 172
39 173
40 123
40 179
40 180
41 58
41 105
41 156
41 157
42 82
42 83
42 143
42 144
43 47
43 108
43 109
43 160
43 161
44 77
44 78
44 126
44 169
44 170
45 66
45 67
45 99
45 100
45 147
45 148
46 134
46 135
46 188
46 189
47 106
47 107
47 158
47 159
48 117
48 118
48 173
48 174
49 115
49 116
49 168
49 169
50 75
50 76
50 113
50 114
50 125
50 139
50 140
50 167
50 168
50 193
50 194
51 68
51 69
51 132
51 133
51 142
51 149
51 150
51 186
51 187
52 126
52 127
52 181
53 54
54 55
55 56
56 57
57 58
59 60
60 61
61 62
62 63
63 64
64 65
65 66
66 67
67 68
68 69
69 70
70 71
71 72
73 74
74 75
75 76
76 77
77 78
78 79
80 81
81 82
82 83
83 84
84 85
85 86
86 87
87 88
88 89
89 90
90 91
91 92
92 93
93 94
94 95
96 97
97 98
98 99
99 100
100 101
101 102
102 103
103 104
104 105
106 107
107 108
108 109
109 110
110 111
111 112
112 113
113 114
114 115
115 116
116 117
117 118
118 119
119 120
120 121
121 122
123 124
126 127
127 128
128 129
129 130
130 131
131 132
132 133
133 134
134 135
135 136
136 137
137 138
138 139
139 140
140 141
143 144
144 145
145 146
146 147
147 148
148 149
149 150
150 151
151 152
152 153
153 154
154 155
155 156
156 157
158 159
159 160
160 161
162 163
163 164
164 165
165 166
166 167
167 168
168 169
169 170
170 171
171 172
172 173
173 174
174 175
175 176
176 177
177 178
179 180
181 182
182 183
183 184
184 185
185 186
186 187
187 188
188 189
189 190
190 191
191 192
192 193
193 194
194 195
